data/lp_files/q3/51_7.lp
\ Model foo
\ LP format - for model browsing. Use MPS format to capture full model detail.
Minimize
  z
Subject To
 allocateEach[1]: x[1,1] + x[2,1] + x[3,1] = 1
 allocateEach[2]: x[1,2] + x[2,2] + x[3,2] = 1
 allocateEach[3]: x[1,3] + x[2,3] + x[3,3] = 1
 allocateEach[4]: x[1,4] + x[2,4] + x[3,4] = 1
 allocateEach[5]: x[1,5] + x[2,5] + x[3,5] = 1
 allocateEach[6]: x[1,6] + x[2,6] + x[3,6] = 1
 allocateEach[7]: x[1,7] + x[2,7] + x[3,7] = 1
 allocateEach[8]: x[1,8] + x[2,8] + x[3,8] = 1
 allocateEach[9]: x[1,9] + x[2,9] + x[3,9] = 1
 allocateEach[10]: x[1,10] + x[2,10] + x[3,10] = 1
 allocateEach[11]: x[1,11] + x[2,11] + x[3,11] = 1
 allocateAllCash: cashProportion[1] + cashProportion[2] + cashProportion[3]
   = 1
 findWorstP[1,2]: z + 0.0976403580146461 cashProportion[1]
   - 0.0976403580146461 cashProportion[2] + 0.058633034987795 x[1,1]
   + 0.0451423921887714 x[1,2] + 0.1429292107404394 x[1,3]
   + 0.1527583401139138 x[1,4] + 0.1089991863303499 x[1,5]
   + 0.0889829129373474 x[1,6] + 0.0346460537021969 x[1,7]
   + 0.0207648494711147 x[1,8] + 0.1555410903173312 x[1,9]
   + 0.0383075671277461 x[1,10] + 0.0556550040683483 x[1,11]
   - 0.058633034987795 x[2,1] - 0.0451423921887714 x[2,2]
   - 0.1429292107404394 x[2,3] - 0.1527583401139138 x[2,4]
   - 0.1089991863303499 x[2,5] - 0.0889829129373474 x[2,6]
   - 0.0346460537021969 x[2,7] - 0.0207648494711147 x[2,8]
   - 0.1555410903173312 x[2,9] - 0.0383075671277461 x[2,10]
   - 0.0556550040683483 x[2,11] >= 0
 findWorstP[1,3]: z + 0.0976403580146461 cashProportion[1]
   - 0.0976403580146461 cashProportion[3] + 0.058633034987795 x[1,1]
   + 0.0451423921887714 x[1,2] + 0.1429292107404394 x[1,3]
   + 0.1527583401139138 x[1,4] + 0.1089991863303499 x[1,5]
   + 0.0889829129373474 x[1,6] + 0.0346460537021969 x[1,7]
   + 0.0207648494711147 x[1,8] + 0.1555410903173312 x[1,9]
   + 0.0383075671277461 x[1,10] + 0.0556550040683483 x[1,11]
   - 0.058633034987795 x[3,1] - 0.0451423921887714 x[3,2]
   - 0.1429292107404394 x[3,3] - 0.1527583401139138 x[3,4]
   - 0.1089991863303499 x[3,5] - 0.0889829129373474 x[3,6]
   - 0.0346460537021969 x[3,7] - 0.0207648494711147 x[3,8]
   - 0.1555410903173312 x[3,9] - 0.0383075671277461 x[3,10]
   - 0.0556550040683483 x[3,11] >= 0
 findWorstP[2,1]: z - 0.0883522308938301 cashProportion[1]
   + 0.0883522308938301 cashProportion[2] - 0.111117655720807 x[1,1]
   - 0.0423943454572228 x[1,2] - 0.0235164187895744 x[1,3]
   - 0.0879251951111766 x[1,4] - 0.1312030628773377 x[1,5]
   - 0.0369901340008835 x[1,6] - 0.1418200559564129 x[1,7]
   - 0.1329112060079517 x[1,8] - 0.0835370343101163 x[1,9]
   - 0.1069061993815344 x[1,10] - 0.0133264614931527 x[1,11]
   + 0.111117655720807 x[2,1] + 0.0423943454572228 x[2,2]
   + 0.0235164187895744 x[2,3] + 0.0879251951111766 x[2,4]
   + 0.1312030628773377 x[2,5] + 0.0369901340008835 x[2,6]
   + 0.1418200559564129 x[2,7] + 0.1329112060079517 x[2,8]
   + 0.0835370343101163 x[2,9] + 0.1069061993815344 x[2,10]
   + 0.0133264614931527 x[2,11] >= 0
 findWorstP[2,3]: z + 0.0883522308938301 cashProportion[2]
   - 0.0883522308938301 cashProportion[3] + 0.111117655720807 x[2,1]
   + 0.0423943454572228 x[2,2] + 0.0235164187895744 x[2,3]
   + 0.0879251951111766 x[2,4] + 0.1312030628773377 x[2,5]
   + 0.0369901340008835 x[2,6] + 0.1418200559564129 x[2,7]
   + 0.1329112060079517 x[2,8] + 0.0835370343101163 x[2,9]
   + 0.1069061993815344 x[2,10] + 0.0133264614931527 x[2,11]
   - 0.111117655720807 x[3,1] - 0.0423943454572228 x[3,2]
   - 0.0235164187895744 x[3,3] - 0.0879251951111766 x[3,4]
   - 0.1312030628773377 x[3,5] - 0.0369901340008835 x[3,6]
   - 0.1418200559564129 x[3,7] - 0.1329112060079517 x[3,8]
   - 0.0835370343101163 x[3,9] - 0.1069061993815344 x[3,10]
   - 0.0133264614931527 x[3,11] >= 0
 findWorstP[3,1]: z - 0.0894441048881204 cashProportion[1]
   + 0.0894441048881204 cashProportion[3] - 0.112446147195182 x[1,1]
   - 0.00298147016293734 x[1,2] - 0.0498054590718683 x[1,3]
   - 0.0321700630580939 x[1,4] - 0.0633562409624186 x[1,5]
   - 0.0589734798229007 x[1,6] - 0.0860899509548158 x[1,7]
   - 0.1424844590867757 x[1,8] - 0.0843606982603122 x[1,9]
   - 0.1311846871692432 x[1,10] - 0.146703239367332 x[1,11]
   + 0.112446147195182 x[3,1] + 0.00298147016293734 x[3,2]
   + 0.0498054590718683 x[3,3] + 0.0321700630580939 x[3,4]
   + 0.0633562409624186 x[3,5] + 0.0589734798229007 x[3,6]
   + 0.0860899509548158 x[3,7] + 0.1424844590867757 x[3,8]
   + 0.0843606982603122 x[3,9] + 0.1311846871692432 x[3,10]
   + 0.146703239367332 x[3,11] >= 0
 findWorstP[3,2]: z - 0.0894441048881204 cashProportion[2]
   + 0.0894441048881204 cashProportion[3] - 0.112446147195182 x[2,1]
   - 0.00298147016293734 x[2,2] - 0.0498054590718683 x[2,3]
   - 0.0321700630580939 x[2,4] - 0.0633562409624186 x[2,5]
   - 0.0589734798229007 x[2,6] - 0.0860899509548158 x[2,7]
   - 0.1424844590867757 x[2,8] - 0.0843606982603122 x[2,9]
   - 0.1311846871692432 x[2,10] - 0.146703239367332 x[2,11]
   + 0.112446147195182 x[3,1] + 0.00298147016293734 x[3,2]
   + 0.0498054590718683 x[3,3] + 0.0321700630580939 x[3,4]
   + 0.0633562409624186 x[3,5] + 0.0589734798229007 x[3,6]
   + 0.0860899509548158 x[3,7] + 0.1424844590867757 x[3,8]
   + 0.0843606982603122 x[3,9] + 0.1311846871692432 x[3,10]
   + 0.146703239367332 x[3,11] >= 0
Bounds
 z <= 1
 -infinity <= cashProportion[1] <= 1
 -infinity <= cashProportion[2] <= 1
 -infinity <= cashProportion[3] <= 1
Binaries
 x[1,1] x[1,2] x[1,3] x[1,4] x[1,5] x[1,6] x[1,7] x[1,8] x[1,9] x[1,10]
 x[1,11] x[2,1] x[2,2] x[2,3] x[2,4] x[2,5] x[2,6] x[2,7] x[2,8] x[2,9]
 x[2,10] x[2,11] x[3,1] x[3,2] x[3,3] x[3,4] x[3,5] x[3,6] x[3,7] x[3,8]
 x[3,9] x[3,10] x[3,11]
End
