data/mps_files/q3/51_7.mps
NAME foo
ROWS
 N  OBJ
 E  allocateEach[1]
 E  allocateEach[2]
 E  allocateEach[3]
 E  allocateEach[4]
 E  allocateEach[5]
 E  allocateEach[6]
 E  allocateEach[7]
 E  allocateEach[8]
 E  allocateEach[9]
 E  allocateEach[10]
 E  allocateEach[11]
 E  allocateAllCash
 G  findWorstP[1,2]
 G  findWorstP[1,3]
 G  findWorstP[2,1]
 G  findWorstP[2,3]
 G  findWorstP[3,1]
 G  findWorstP[3,2]
COLUMNS
    z         OBJ       1
    z         findWorstP[1,2]  1
    z         findWorstP[1,3]  1
    z         findWorstP[2,1]  1
    z         findWorstP[2,3]  1
    z         findWorstP[3,1]  1
    z         findWorstP[3,2]  1
    cashProportion[1]  allocateAllCash  1
    cashProportion[1]  findWorstP[1,2]  9.7640358014646086e-02
    cashProportion[1]  findWorstP[1,3]  9.7640358014646086e-02
    cashProportion[1]  findWorstP[2,1]  -0.0883522308938301
    cashProportion[1]  findWorstP[3,1]  -8.9444104888120352e-02
    cashProportion[2]  allocateAllCash  1
    cashProportion[2]  findWorstP[1,2]  -9.7640358014646086e-02
    cashProportion[2]  findWorstP[2,1]  0.0883522308938301
    cashProportion[2]  findWorstP[2,3]  0.0883522308938301
    cashProportion[2]  findWorstP[3,2]  -8.9444104888120352e-02
    cashProportion[3]  allocateAllCash  1
    cashProportion[3]  findWorstP[1,3]  -9.7640358014646086e-02
    cashProportion[3]  findWorstP[2,3]  -0.0883522308938301
    cashProportion[3]  findWorstP[3,1]  8.9444104888120352e-02
    cashProportion[3]  findWorstP[3,2]  8.9444104888120352e-02
    MARKER    'MARKER'                 'INTORG'
    x[1,1]    allocateEach[1]  1
    x[1,1]    findWorstP[1,2]  5.8633034987794964e-02
    x[1,1]    findWorstP[1,3]  5.8633034987794964e-02
    x[1,1]    findWorstP[2,1]  -1.1111765572080697e-01
    x[1,1]    findWorstP[3,1]  -1.1244614719518195e-01
    x[1,2]    allocateEach[2]  1
    x[1,2]    findWorstP[1,2]  4.5142392188771363e-02
    x[1,2]    findWorstP[1,3]  4.5142392188771363e-02
    x[1,2]    findWorstP[2,1]  -0.0423943454572228
    x[1,2]    findWorstP[3,1]  -2.9814701629373446e-03
    x[1,3]    allocateEach[3]  1
    x[1,3]    findWorstP[1,2]  1.4292921074043941e-01
    x[1,3]    findWorstP[1,3]  1.4292921074043941e-01
    x[1,3]    findWorstP[2,1]  -2.3516418789574441e-02
    x[1,3]    findWorstP[3,1]  -4.9805459071868341e-02
    x[1,4]    allocateEach[4]  1
    x[1,4]    findWorstP[1,2]  1.5275834011391376e-01
    x[1,4]    findWorstP[1,3]  1.5275834011391376e-01
    x[1,4]    findWorstP[2,1]  -8.7925195111176566e-02
    x[1,4]    findWorstP[3,1]  -3.2170063058093945e-02
    x[1,5]    allocateEach[5]  1
    x[1,5]    findWorstP[1,2]  1.0899918633034988e-01
    x[1,5]    findWorstP[1,3]  1.0899918633034988e-01
    x[1,5]    findWorstP[2,1]  -1.3120306287733768e-01
    x[1,5]    findWorstP[3,1]  -6.3356240962418570e-02
    x[1,6]    allocateEach[6]  1
    x[1,6]    findWorstP[1,2]  8.8982912937347447e-02
    x[1,6]    findWorstP[1,3]  8.8982912937347447e-02
    x[1,6]    findWorstP[2,1]  -3.6990134000883523e-02
    x[1,6]    findWorstP[3,1]  -5.8973479822900680e-02
    x[1,7]    allocateEach[7]  1
    x[1,7]    findWorstP[1,2]  3.4646053702196915e-02
    x[1,7]    findWorstP[1,3]  3.4646053702196915e-02
    x[1,7]    findWorstP[2,1]  -1.4182005595641292e-01
    x[1,7]    findWorstP[3,1]  -8.6089950954815836e-02
    x[1,8]    allocateEach[8]  1
    x[1,8]    findWorstP[1,2]  2.0764849471114729e-02
    x[1,8]    findWorstP[1,3]  2.0764849471114729e-02
    x[1,8]    findWorstP[2,1]  -1.3291120600795170e-01
    x[1,8]    findWorstP[3,1]  -1.4248445908677571e-01
    x[1,9]    allocateEach[9]  1
    x[1,9]    findWorstP[1,2]  1.5554109031733118e-01
    x[1,9]    findWorstP[1,3]  1.5554109031733118e-01
    x[1,9]    findWorstP[2,1]  -8.3537034310116345e-02
    x[1,9]    findWorstP[3,1]  -8.4360698260312159e-02
    x[1,10]   allocateEach[10]  1
    x[1,10]   findWorstP[1,2]  3.8307567127746141e-02
    x[1,10]   findWorstP[1,3]  3.8307567127746141e-02
    x[1,10]   findWorstP[2,1]  -1.0690619938153439e-01
    x[1,10]   findWorstP[3,1]  -1.3118468716924317e-01
    x[1,11]   allocateEach[11]  1
    x[1,11]   findWorstP[1,2]  5.5655004068348266e-02
    x[1,11]   findWorstP[1,3]  5.5655004068348266e-02
    x[1,11]   findWorstP[2,1]  -1.3326461493152704e-02
    x[1,11]   findWorstP[3,1]  -1.4670323936733204e-01
    x[2,1]    allocateEach[1]  1
    x[2,1]    findWorstP[1,2]  -5.8633034987794964e-02
    x[2,1]    findWorstP[2,1]  1.1111765572080697e-01
    x[2,1]    findWorstP[2,3]  1.1111765572080697e-01
    x[2,1]    findWorstP[3,2]  -1.1244614719518195e-01
    x[2,2]    allocateEach[2]  1
    x[2,2]    findWorstP[1,2]  -4.5142392188771363e-02
    x[2,2]    findWorstP[2,1]  0.0423943454572228
    x[2,2]    findWorstP[2,3]  0.0423943454572228
    x[2,2]    findWorstP[3,2]  -2.9814701629373446e-03
    x[2,3]    allocateEach[3]  1
    x[2,3]    findWorstP[1,2]  -1.4292921074043941e-01
    x[2,3]    findWorstP[2,1]  2.3516418789574441e-02
    x[2,3]    findWorstP[2,3]  2.3516418789574441e-02
    x[2,3]    findWorstP[3,2]  -4.9805459071868341e-02
    x[2,4]    allocateEach[4]  1
    x[2,4]    findWorstP[1,2]  -1.5275834011391376e-01
    x[2,4]    findWorstP[2,1]  8.7925195111176566e-02
    x[2,4]    findWorstP[2,3]  8.7925195111176566e-02
    x[2,4]    findWorstP[3,2]  -3.2170063058093945e-02
    x[2,5]    allocateEach[5]  1
    x[2,5]    findWorstP[1,2]  -1.0899918633034988e-01
    x[2,5]    findWorstP[2,1]  1.3120306287733768e-01
    x[2,5]    findWorstP[2,3]  1.3120306287733768e-01
    x[2,5]    findWorstP[3,2]  -6.3356240962418570e-02
    x[2,6]    allocateEach[6]  1
    x[2,6]    findWorstP[1,2]  -8.8982912937347447e-02
    x[2,6]    findWorstP[2,1]  3.6990134000883523e-02
    x[2,6]    findWorstP[2,3]  3.6990134000883523e-02
    x[2,6]    findWorstP[3,2]  -5.8973479822900680e-02
    x[2,7]    allocateEach[7]  1
    x[2,7]    findWorstP[1,2]  -3.4646053702196915e-02
    x[2,7]    findWorstP[2,1]  1.4182005595641292e-01
    x[2,7]    findWorstP[2,3]  1.4182005595641292e-01
    x[2,7]    findWorstP[3,2]  -8.6089950954815836e-02
    x[2,8]    allocateEach[8]  1
    x[2,8]    findWorstP[1,2]  -2.0764849471114729e-02
    x[2,8]    findWorstP[2,1]  1.3291120600795170e-01
    x[2,8]    findWorstP[2,3]  1.3291120600795170e-01
    x[2,8]    findWorstP[3,2]  -1.4248445908677571e-01
    x[2,9]    allocateEach[9]  1
    x[2,9]    findWorstP[1,2]  -1.5554109031733118e-01
    x[2,9]    findWorstP[2,1]  8.3537034310116345e-02
    x[2,9]    findWorstP[2,3]  8.3537034310116345e-02
    x[2,9]    findWorstP[3,2]  -8.4360698260312159e-02
    x[2,10]   allocateEach[10]  1
    x[2,10]   findWorstP[1,2]  -3.8307567127746141e-02
    x[2,10]   findWorstP[2,1]  1.0690619938153439e-01
    x[2,10]   findWorstP[2,3]  1.0690619938153439e-01
    x[2,10]   findWorstP[3,2]  -1.3118468716924317e-01
    x[2,11]   allocateEach[11]  1
    x[2,11]   findWorstP[1,2]  -5.5655004068348266e-02
    x[2,11]   findWorstP[2,1]  1.3326461493152704e-02
    x[2,11]   findWorstP[2,3]  1.3326461493152704e-02
    x[2,11]   findWorstP[3,2]  -1.4670323936733204e-01
    x[3,1]    allocateEach[1]  1
    x[3,1]    findWorstP[1,3]  -5.8633034987794964e-02
    x[3,1]    findWorstP[2,3]  -1.1111765572080697e-01
    x[3,1]    findWorstP[3,1]  1.1244614719518195e-01
    x[3,1]    findWorstP[3,2]  1.1244614719518195e-01
    x[3,2]    allocateEach[2]  1
    x[3,2]    findWorstP[1,3]  -4.5142392188771363e-02
    x[3,2]    findWorstP[2,3]  -0.0423943454572228
    x[3,2]    findWorstP[3,1]  2.9814701629373446e-03
    x[3,2]    findWorstP[3,2]  2.9814701629373446e-03
    x[3,3]    allocateEach[3]  1
    x[3,3]    findWorstP[1,3]  -1.4292921074043941e-01
    x[3,3]    findWorstP[2,3]  -2.3516418789574441e-02
    x[3,3]    findWorstP[3,1]  4.9805459071868341e-02
    x[3,3]    findWorstP[3,2]  4.9805459071868341e-02
    x[3,4]    allocateEach[4]  1
    x[3,4]    findWorstP[1,3]  -1.5275834011391376e-01
    x[3,4]    findWorstP[2,3]  -8.7925195111176566e-02
    x[3,4]    findWorstP[3,1]  3.2170063058093945e-02
    x[3,4]    findWorstP[3,2]  3.2170063058093945e-02
    x[3,5]    allocateEach[5]  1
    x[3,5]    findWorstP[1,3]  -1.0899918633034988e-01
    x[3,5]    findWorstP[2,3]  -1.3120306287733768e-01
    x[3,5]    findWorstP[3,1]  6.3356240962418570e-02
    x[3,5]    findWorstP[3,2]  6.3356240962418570e-02
    x[3,6]    allocateEach[6]  1
    x[3,6]    findWorstP[1,3]  -8.8982912937347447e-02
    x[3,6]    findWorstP[2,3]  -3.6990134000883523e-02
    x[3,6]    findWorstP[3,1]  5.8973479822900680e-02
    x[3,6]    findWorstP[3,2]  5.8973479822900680e-02
    x[3,7]    allocateEach[7]  1
    x[3,7]    findWorstP[1,3]  -3.4646053702196915e-02
    x[3,7]    findWorstP[2,3]  -1.4182005595641292e-01
    x[3,7]    findWorstP[3,1]  8.6089950954815836e-02
    x[3,7]    findWorstP[3,2]  8.6089950954815836e-02
    x[3,8]    allocateEach[8]  1
    x[3,8]    findWorstP[1,3]  -2.0764849471114729e-02
    x[3,8]    findWorstP[2,3]  -1.3291120600795170e-01
    x[3,8]    findWorstP[3,1]  1.4248445908677571e-01
    x[3,8]    findWorstP[3,2]  1.4248445908677571e-01
    x[3,9]    allocateEach[9]  1
    x[3,9]    findWorstP[1,3]  -1.5554109031733118e-01
    x[3,9]    findWorstP[2,3]  -8.3537034310116345e-02
    x[3,9]    findWorstP[3,1]  8.4360698260312159e-02
    x[3,9]    findWorstP[3,2]  8.4360698260312159e-02
    x[3,10]   allocateEach[10]  1
    x[3,10]   findWorstP[1,3]  -3.8307567127746141e-02
    x[3,10]   findWorstP[2,3]  -1.0690619938153439e-01
    x[3,10]   findWorstP[3,1]  1.3118468716924317e-01
    x[3,10]   findWorstP[3,2]  1.3118468716924317e-01
    x[3,11]   allocateEach[11]  1
    x[3,11]   findWorstP[1,3]  -5.5655004068348266e-02
    x[3,11]   findWorstP[2,3]  -1.3326461493152704e-02
    x[3,11]   findWorstP[3,1]  1.4670323936733204e-01
    x[3,11]   findWorstP[3,2]  1.4670323936733204e-01
    MARKER    'MARKER'                 'INTEND'
RHS
    RHS1      allocateEach[1]  1
    RHS1      allocateEach[2]  1
    RHS1      allocateEach[3]  1
    RHS1      allocateEach[4]  1
    RHS1      allocateEach[5]  1
    RHS1      allocateEach[6]  1
    RHS1      allocateEach[7]  1
    RHS1      allocateEach[8]  1
    RHS1      allocateEach[9]  1
    RHS1      allocateEach[10]  1
    RHS1      allocateEach[11]  1
    RHS1      allocateAllCash  1
BOUNDS
 UP BND1      z         1
 MI BND1      cashProportion[1]
 UP BND1      cashProportion[1]  1
 MI BND1      cashProportion[2]
 UP BND1      cashProportion[2]  1
 MI BND1      cashProportion[3]
 UP BND1      cashProportion[3]  1
 BV BND1      x[1,1]  
 BV BND1      x[1,2]  
 BV BND1      x[1,3]  
 BV BND1      x[1,4]  
 BV BND1      x[1,5]  
 BV BND1      x[1,6]  
 BV BND1      x[1,7]  
 BV BND1      x[1,8]  
 BV BND1      x[1,9]  
 BV BND1      x[1,10] 
 BV BND1      x[1,11] 
 BV BND1      x[2,1]  
 BV BND1      x[2,2]  
 BV BND1      x[2,3]  
 BV BND1      x[2,4]  
 BV BND1      x[2,5]  
 BV BND1      x[2,6]  
 BV BND1      x[2,7]  
 BV BND1      x[2,8]  
 BV BND1      x[2,9]  
 BV BND1      x[2,10] 
 BV BND1      x[2,11] 
 BV BND1      x[3,1]  
 BV BND1      x[3,2]  
 BV BND1      x[3,3]  
 BV BND1      x[3,4]  
 BV BND1      x[3,5]  
 BV BND1      x[3,6]  
 BV BND1      x[3,7]  
 BV BND1      x[3,8]  
 BV BND1      x[3,9]  
 BV BND1      x[3,10] 
 BV BND1      x[3,11] 
ENDATA
